Gurobi Optimizer version 9.1.2 build v9.1.2rc0 (linux64)
Thread count: 36 physical cores, 72 logical processors, using up to 32 threads
Optimize a model with 12 rows, 57 columns and 590 nonzeros
Model fingerprint: 0xf32eec78
Model has 47 quadratic constraints
Coefficient statistics:
  Matrix range     [2e-05, 3e+00]
  QMatrix range    [1e+00, 1e+00]
  QLMatrix range   [1e+00, 1e+00]
  Objective range  [8e-03, 7e-01]
  Bounds range     [1e+00, 1e+00]
  RHS range        [1e+00, 1e+00]
Presolve removed 9 rows and 0 columns

Continuous model is non-convex -- solving as a MIP.

Presolve removed 9 rows and 0 columns
Presolve time: 0.00s
Presolved: 189 rows, 57 columns, 443 nonzeros
Presolved model has 47 bilinear constraint(s)
Variable types: 57 continuous, 0 integer (0 binary)

Root relaxation: objective -1.743721e+00, 44 iterations, 0.00 seconds

    Nodes    |    Current Node    |     Objective Bounds      |     Work
 Expl Unexpl |  Obj  Depth IntInf | Incumbent    BestBd   Gap | It/Node Time

     0     0   -1.74372    0   38          -   -1.74372      -     -    0s
H    0     0                       0.6147548   -1.74372   384%     -    0s
     0     0   -1.64739    0    1    0.61475   -1.64739   368%     -    0s
H    0     0                      -1.6450460   -1.64739  0.14%     -    0s
     0     0     cutoff    0        -1.64505   -1.64505  0.00%     -    0s

Cutting planes:
  RLT: 25
  BQP: 3

Explored 1 nodes (76 simplex iterations) in 0.01 seconds
Thread count was 32 (of 72 available processors)

Solution count 2: -1.64505 0.614755 
No other solutions better than -1.64505

Optimal solution found (tolerance 1.00e-04)
Best objective -1.645045978473e+00, best bound -1.645045978473e+00, gap 0.0000%

User-callback calls 78, time in user-callback 0.00 sec
Gurobi Optimizer version 9.1.2 build v9.1.2rc0 (linux64)
Thread count: 36 physical cores, 72 logical processors, using up to 32 threads
Optimize a model with 60 rows, 300 columns and 15500 nonzeros
Model fingerprint: 0xbf9ae0bf
Model has 250 quadratic constraints
Coefficient statistics:
  Matrix range     [1e-06, 4e+00]
  QMatrix range    [1e+00, 1e+00]
  QLMatrix range   [1e+00, 1e+00]
  Objective range  [2e-04, 1e+00]
  Bounds range     [1e+00, 1e+00]
  RHS range        [1e+00, 1e+00]
Presolve removed 11 rows and 0 columns

Continuous model is non-convex -- solving as a MIP.

Presolve removed 11 rows and 0 columns
Presolve time: 0.01s
Presolved: 1049 rows, 300 columns, 14162 nonzeros
Presolved model has 250 bilinear constraint(s)
Variable types: 300 continuous, 0 integer (0 binary)

Root relaxation: objective -2.033087e+01, 338 iterations, 0.02 seconds

    Nodes    |    Current Node    |     Objective Bounds      |     Work
 Expl Unexpl |  Obj  Depth IntInf | Incumbent    BestBd   Gap | It/Node Time

     0     0  -20.33087    0  189          -  -20.33087      -     -    0s
H    0     0                      -9.6034883  -20.33087   112%     -    0s
     0     0  -19.23553    0  147   -9.60349  -19.23553   100%     -    0s
H    0     0                     -13.7502402  -19.23553  39.9%     -    0s
     0     0  -19.13751    0   84  -13.75024  -19.13751  39.2%     -    0s
H    0     0                     -15.6335567  -19.13751  22.4%     -    0s
H    0     0                     -15.6335568  -19.13751  22.4%     -    0s
H    0     0                     -17.6318627  -19.13751  8.54%     -    0s
     0     2  -19.13751    0   84  -17.63186  -19.13751  8.54%     -    0s
* 1077   781              38     -17.6357974  -18.56798  5.29%  56.6    1s
* 1078   781              38     -17.6358059  -18.56798  5.29%  56.5    1s
* 1079   781              37     -17.6358147  -18.56798  5.29%  56.5    1s
* 1324  1006              65     -17.6681841  -18.56798  5.09%  52.2    1s
* 1951  1496              45     -18.1562607  -18.56798  2.27%  44.5    1s
H 1952  1496                     -18.1562695  -18.56798  2.27%  44.5    1s
* 2632  1694              68     -18.1868292  -18.50123  1.73%  42.4    2s
* 2633  1694              68     -18.1868295  -18.50123  1.73%  42.4    2s
* 3017  1699              71     -18.1874465  -18.50123  1.73%  41.8    2s
* 3018  1699              71     -18.1874523  -18.50123  1.73%  41.8    2s
* 3023  1699              70     -18.1874727  -18.50123  1.73%  41.8    2s
* 3161  1699              71     -18.1875154  -18.50123  1.72%  41.8    2s
* 3162  1699              71     -18.1875166  -18.50123  1.72%  41.8    2s
* 4355  1869              44     -18.1877210  -18.39421  1.14%  41.3    2s
* 4614  1869              44     -18.1887435  -18.39421  1.13%  40.2    3s
* 4616  1869              45     -18.1887436  -18.39421  1.13%  40.2    3s
* 5645  1856              58     -18.2159028  -18.38869  0.95%  37.7    3s
* 6623  1664              47     -18.2159038  -18.31290  0.53%  37.2    3s
* 8164  1664              42     -18.2160540  -18.25514  0.21%  35.9    4s
* 8165  1664              42     -18.2160549  -18.25514  0.21%  35.9    4s
* 8993  1834              48     -18.2160557  -18.24275  0.15%  34.6    4s
* 9813  1976              48     -18.2184637  -18.23803  0.11%  33.0    4s
* 9814  1976              48     -18.2184644  -18.23803  0.11%  33.0    4s
 10427  1790     cutoff   21       -18.21846  -18.23620  0.10%  31.8    5s
*10715  1790              48     -18.2185544  -18.23513  0.09%  31.5    5s
*10719  1790              50     -18.2185588  -18.23513  0.09%  31.5    5s
*10828  1790              50     -18.2187515  -18.23513  0.09%  31.3    5s
*11138  1888              45     -18.2190192  -18.23118  0.07%  30.7    5s
*11139  1888              44     -18.2190207  -18.23118  0.07%  30.7    5s
*11207  1888              61     -18.2207838  -18.23118  0.06%  30.6    5s
*11209  1888              62     -18.2207847  -18.23118  0.06%  30.5    5s
*11272  1888              63     -18.2208952  -18.23118  0.06%  30.5    5s
*12194  1759              45     -18.2209023  -18.22758  0.04%  29.0    5s
*12434  1759              61     -18.2212672  -18.22758  0.03%  28.7    5s
*12435  1759              62     -18.2213052  -18.22758  0.03%  28.7    5s
*13124  1555              47     -18.2213144  -18.22650  0.03%  27.7    5s
*13125  1555              47     -18.2213151  -18.22650  0.03%  27.7    5s
*13189  1555              49     -18.2213276  -18.22650  0.03%  27.6    5s
*13193  1555              50     -18.2213276  -18.22650  0.03%  27.6    5s
*13194  1555              50     -18.2213281  -18.22650  0.03%  27.6    5s
*13396  1602              51     -18.2213373  -18.22464  0.02%  27.3    5s
*13397  1602              51     -18.2213378  -18.22464  0.02%  27.3    5s
*13713  1602              54     -18.2213704  -18.22430  0.02%  26.9    5s
*13857  1602              50     -18.2213814  -18.22430  0.02%  26.7    5s
*13859  1602              51     -18.2213829  -18.22430  0.02%  26.7    5s
*13881  1602              49     -18.2213852  -18.22430  0.02%  26.6    5s
*14063  1602              52     -18.2214545  -18.22430  0.02%  26.3    5s
*14064  1602              52     -18.2214575  -18.22430  0.02%  26.3    5s
*14067  1602              53     -18.2214658  -18.22430  0.02%  26.3    5s
*14070  1602              53     -18.2214671  -18.22430  0.02%  26.3    5s
*14228  1632              51     -18.2215344  -18.22430  0.02%  26.1    5s
*14231  1632              52     -18.2215386  -18.22430  0.02%  26.1    5s
*14233  1632              52     -18.2215524  -18.22430  0.02%  26.1    5s
*14250  1632              45     -18.2215786  -18.22430  0.01%  26.1    5s
*15132  1632              45     -18.2215892  -18.22410  0.01%  24.9    5s
*15240  1883              53     -18.2215916  -18.22256  0.01%  24.8    5s
*15241  1883              53     -18.2216050  -18.22256  0.01%  24.8    5s
*15291  1883              58     -18.2216386  -18.22256  0.01%  24.7    5s
*15292  1883              58     -18.2216387  -18.22256  0.01%  24.7    5s
*15331  1883              48     -18.2216504  -18.22256  0.00%  24.7    5s
*15356  1883              49     -18.2217495  -18.22256  0.00%  24.6    5s
*15386  1883              54     -18.2217657  -18.22256  0.00%  24.6    5s
*15389  1883              54     -18.2217660  -18.22256  0.00%  24.6    5s

Cutting planes:
  RLT: 45
  BQP: 7

Explored 15967 nodes (382251 simplex iterations) in 5.96 seconds
Thread count was 32 (of 72 available processors)

Solution count 10: -18.2218 -18.2218 -18.2217 ... -18.2216

Optimal solution found (tolerance 1.00e-04)
Best objective -1.822176599416e+01, best bound -1.822255595839e+01, gap 0.0043%

User-callback calls 32609, time in user-callback 0.01 sec



objective value: -18.221765994161164
objective bound: -18.222555958393908
x_opt: [0.0, 1.0, 1.0, 0.0, 0.0, 1.0, 1.0, 1.0, 0.0, 0.0, 0.0, 0.17765862366559548, 0.0, 1.0, 1.0, 1.0, 0.16886100385782948, 1.0, 0.0, 0.0, 0.0, 1.0, 1.0, 1.0, 0.0, 1.0, 1.0, 1.0, 0.0, 0.9970979605045842, 0.6622680539269681, 1.0, 0.16724039909115654, 1.0, 1.0, 1.0, 1.0, 0.7799288996501748, 0.8264052012168995, 1.0, 0.8879204436588661, 0.5032391517105828, 1.0, 0.0, 0.0, 0.9652416816891803, 0.24031179281090137, 0.333755088365368, 0.0, 1.0]
GUROBI solution time: 5.957018136978149

